67 992
3 5 6 10 11 12 18 23 25 27 28 31 32 34 36 38 40 41 42 44 45 48 50 51 52 53 56 58 59 62 63 65
2 4 5 8 9 10 11 12 14 16 20 21 22 23 26 29 30 33 34 38 41 43 47 49 50 52 53 56 62 63
1 3 4 6 12 15 16 18 19 20 22 26 27 28 29 32 36 40 43 45 47 51 54 65
0 2 4 5 10 13 15 16 18 20 24 25 26 28 29 31 32 36 37 38 41 42 46 47 49 50 53 54 55 56 60 61 64 66
1 2 3 6 7 9 11 12 15 16 17 18 19 21 23 24 26 27 31 34 37 40 41 42 44 46 50 51 53 54 57 58 59 64
0 1 3 7 8 9 11 12 21 23 24 25 26 27 28 29 30 33 34 35 36 37 39 43 47 48 49 50 53 55 56 61
0 2 4 9 12 17 18 22 23 27 28 29 30 31 32 35 47 48 50 51 52 54 55 56 57 58 60 61 63 66
4 5 8 9 10 11 15 16 17 23 25 26 29 35 38 39 44 45 48 49 50 51 52 54 60 63 64 65 66
1 5 7 11 12 14 18 21 24 25 30 32 34 35 39 45 48 49 50 53 56 58 62 65 66
1 4 5 6 7 10 11 12 15 21 23 24 29 30 32 33 37 39 40 41 43 45 47 50 51 57 58 60 61 65
0 1 3 7 9 12 18 19 20 24 29 32 34 40 44 45 48 49 50 53 54 55 56 59 60 62 64 65 66
0 1 4 5 7 8 9 12 13 14 16 17 18 19 23 24 26 29 30 31 33 35 36 37 41 42 46 47 48 49 50 52 53 55 56 58 59 64 65
0 1 2 4 5 6 8 9 10 11 13 14 19 22 25 26 29 30 35 38 40 47 48 50 54 55 57 59 64
3 11 12 15 17 19 23 25 26 27 30 31 38 40 44 46 47 48 50 51 54 55 56 58 59 60 63 66
1 8 11 12 17 21 24 25 26 27 28 29 30 34 36 38 40 45 48 49 51 52 56 57 60 63
2 3 4 7 9 13 18 21 22 24 25 27 28 30 31 34 35 39 41 44 46 48 57 59 60 62 63
1 2 3 4 7 11 18 19 20 21 22 23 24 26 27 29 31 32 36 39 43 44 45 47 49 51 52 53 55 57 60 64 65 66
4 6 7 11 13 14 18 19 24 27 28 31 32 35 37 38 39 41 44 46 47 48 50 51 54 55 57 59 60
0 2 3 4 6 8 10 11 15 16 17 19 25 27 28 30 36 42 43 46 49 52 53 54 56 60 66
2 4 10 11 12 13 16 17 18 21 22 26 30 31 33 34 36 37 38 39 40 44 48 49 51 55 56 59 64 66
1 2 3 10 16 21 27 29 33 37 38 39 41 42 43 45 46 50 51 53 54 58 61 63 65
1 4 5 8 9 14 15 16 19 20 22 23 24 25 27 28 29 30 33 34 37 43 45 49 53 54 57 59 60 64 65 66
1 2 6 12 15 16 19 21 25 26 29 30 31 32 35 38 39 48 50 52 55 56 59 60
0 1 4 5 6 7 9 11 13 16 21 24 29 30 31 35 37 40 42 44 46 47 48 54 57 59 64 65 66
3 4 5 8 9 10 11 14 15 16 17 21 23 26 27 30 32 33 35 39 41 45 47 49 50 53 54 58 59 61 63 64 66
0 3 5 7 8 12 13 14 15 18 21 22 29 30 31 33 34 35 40 41 42 44 46 47 49 50 56 59 60 62 66
1 2 3 4 5 7 11 12 13 14 16 19 22 24 32 36 37 38 41 43 45 46 48 51 56 60 62 65 66
0 2 4 5 6 13 14 15 16 17 18 20 21 24 31 32 33 34 38 40 41 44 52 54 55 56 60 62 65
0 2 3 5 6 14 15 17 18 21 30 33 35 40 42 46 48 49 50 51 53 56 57 59 62 63
1 2 3 5 6 7 9 10 11 12 14 16 20 21 22 23 25 30 31 32 33 35 37 42 45 46 51 52 54 60 61 64 65 66
1 5 6 8 9 11 12 13 14 15 18 19 21 22 23 24 25 28 29 33 39 40 41 46 50 52 56 57 62 64
0 3 4 6 11 13 15 16 17 19 22 23 25 27 29 32 33 34 35 36 37 40 41 42 44 52 53 56 59 60 63 64 66
0 2 3 6 8 9 10 16 17 22 24 26 27 29 31 33 35 37 38 39 42 43 47 48 49 51 52 55 58 60 64 66
1 5 9 11 19 20 21 24 25 27 28 29 30 31 32 35 36 37 39 40 43 44 45 46 48 50 51 53 57 60 61 62 65
0 1 4 5 8 10 14 15 19 21 25 27 31 36 38 39 42 43 45 46 51 53 57 58 59 64
5 6 7 8 11 12 15 17 22 23 24 25 28 29 31 32 33 36 37 39 41 43 45 47 48 49 56 58 59 60 61 64 65
0 2 3 5 11 14 16 18 19 26 31 33 34 35 39 41 43 44 45 56 60 61 62 63
3 4 5 9 11 17 19 20 21 23 26 29 31 32 33 35 40 41 43 46 47 51 54 56 58 61 62 63 65 66
0 1 3 7 12 13 14 17 19 20 22 26 27 32 34 41 43 45 46 47 49 50 51 54 56 63 66
5 7 8 9 15 16 17 19 20 22 24 30 32 33 34 35 36 45 47 48 50 51 52 56 57 59 60 61 62 63 64 65 66
0 2 4 9 10 12 13 14 19 23 25 27 28 30 31 33 37 41 42 48 50 52 53 54 60 63 65 66
0 1 3 4 9 11 15 17 20 24 25 26 27 30 31 35 36 37 38 40 46 47 53 56 57 61 62 63 64
0 3 4 11 18 20 23 25 28 29 31 32 34 40 44 49 51 54 56 61 62 65
1 2 5 9 16 18 20 21 26 32 33 34 35 36 37 38 45 46 47 50 51 52 58 59 60 61 63 65 66
0 4 7 10 13 15 16 17 19 23 25 27 31 33 36 42 45 47 48 50 56 58 61 65 66
0 2 7 8 9 10 14 16 20 21 24 26 29 33 34 35 36 38 39 43 44 47 48 50 54 55 61 62 64
3 4 11 13 15 17 18 20 23 25 26 28 29 30 33 34 37 38 41 43 47 49 50 52 53 57 59 63 64 65
1 2 3 5 6 9 11 12 13 16 17 23 24 25 32 35 37 38 39 41 43 44 45 46 49 52 55 56 58 62 63 65
0 5 6 7 8 10 11 12 13 14 15 17 19 22 23 26 28 32 33 35 39 40 44 45 49 52 53 54 55 56 57 58 60 65
1 3 5 7 8 10 11 14 16 18 19 21 24 25 28 32 35 38 42 46 47 48 50 51 52 54 56 57 58 62 64 66
0 1 3 4 5 6 7 8 9 10 11 12 13 17 20 22 24 25 28 30 33 38 39 40 43 44 45 46 49 53 55 56 57 61 62 64 66
0 2 4 6 7 9 13 14 16 17 19 20 26 28 29 32 33 34 37 38 39 42 43 49 52 53 59 61 62 66
0 1 6 7 11 14 16 18 22 27 29 30 31 32 39 40 43 46 47 48 49 51 53 54 56 59 63
0 1 3 4 5 8 10 11 16 18 20 21 24 28 31 33 34 40 41 46 48 50 51 52 54 59 62 63 66
2 3 4 6 7 10 12 13 17 18 20 21 23 24 27 29 37 38 40 42 45 48 49 52 53 55 58 59 62 66
3 5 6 10 11 12 13 16 17 19 22 27 32 45 47 48 50 54 56 59 61 62 64 65 66
0 1 3 5 6 8 10 11 13 14 18 19 22 25 26 27 28 30 31 35 36 37 38 39 41 42 44 47 48 49 50 52 55 57 60 63
4 6 9 12 14 15 16 17 21 23 28 30 33 34 39 41 46 48 49 50 56 59 60 61 62 64
0 4 6 8 9 11 13 20 24 32 34 35 37 43 44 47 48 49 54 59 60 65
0 4 10 11 12 13 15 17 19 21 22 23 24 25 28 31 34 35 39 43 46 51 52 53 54 55 57 58 60 61 62 63 64 66
3 6 7 9 10 13 14 15 16 17 18 21 22 25 26 27 29 31 32 33 35 36 39 40 43 48 56 57 58 59 61 62 63 65 66
3 5 6 9 20 24 29 33 35 36 37 39 41 42 43 44 45 50 51 55 57 59 60 62 65 66
0 1 8 10 15 25 26 27 28 30 33 36 37 39 41 42 45 47 49 50 51 53 54 55 57 59 60 61 64 65
0 1 6 7 13 14 15 20 24 28 31 36 37 38 39 40 41 43 46 47 52 53 56 59 60 65
3 4 7 10 11 12 16 19 21 23 24 29 30 31 32 34 35 39 41 45 46 49 50 55 57 59 62
0 2 7 8 9 10 11 16 20 21 23 26 27 29 33 35 37 39 40 42 43 44 46 47 48 55 58 60 61 62 63
3 6 7 8 10 13 16 18 19 21 23 24 25 26 29 31 32 37 38 39 40 43 44 49 50 51 53 54 55 59 60 61
